100
100
574 20
374 15
378 4
465 16
860 25
214 22
537 6
790 24
905 22
237 24
921 18
672 14
676 17
546 4
979 18
896 5
624 12
44 19
777 25
842 8
271 12
658 24
620 1
938 15
737 12
265 10
251 9
410 7
419 10
985 8
948 22
157 14
160 9
57 13
278 10
744 3
886 18
8 10
156 6
829 23
180 16
543 15
907 20
658 21
351 13
481 18
799 23
1 23
239 23
668 18
229 17
617 4
906 23
626 14
627 5
360 16
738 8
551 19
306 7
293 18
141 16
595 8
864 23
374 1
980 8
243 10
212 15
477 7
850 20
863 17
953 24
805 8
491 23
563 4
143 21
49 13
169 4
656 7
136 24
599 19
663 6
355 16
523 20
5 4
665 10
100 24
953 14
900 10
77 10
393 20
436 22
926 23
506 10
294 14
821 6
671 4
369 19
849 16
110 18
660 3
